job_count = 12 ;
duration = [|28, 4, 18|26, 3, 10|6, 12, 15|27, 8, 4|17, 15, 18|9, 7, 4|10, 4, 4|9, 24, 14|14, 12, 19|24, 14, 11|16, 10, 14|15, 10, 16|] ;
machine_count = 3 ;
cost = [|14, 45, 42|32, 39, 50|37, 34, 45|46, 21, 49|28, 37, 32|22, 38, 53|22, 40, 50|19, 48, 50|20, 24, 51|37, 49, 46|31, 21, 55|22, 34, 34|] ;
deadline = [39, 39, 13, 36, 10, 35, 20, 32, 39, 14, 23, 35] ;
release = [0, 0, 0, 0, 0, 0, 0, 0, 0, 0, 0, 0] ;
resource = [|3, 3, 3|5, 5, 5|4, 4, 4|7, 7, 7|2, 2, 2|1, 1, 1|9, 9, 9|8, 8, 8|3, 3, 3|3, 3, 3|3, 3, 3|7, 7, 7|] ;
capacities = [10, 10, 10] ;
